p edge 20 59
e 1 3
e 1 14
e 2 3
e 2 4
e 2 6
e 2 7
e 2 11
e 2 12
e 2 13
e 2 14
e 2 17
e 2 18
e 3 7
e 3 9
e 3 11
e 3 17
e 4 5
e 4 8
e 4 9
e 4 11
e 4 13
e 4 18
e 5 11
e 5 16
e 6 10
e 6 17
e 6 19
e 6 20
e 7 8
e 7 9
e 7 12
e 7 13
e 7 16
e 7 18
e 7 19
e 8 10
e 8 12
e 8 17
e 8 18
e 9 10
e 9 11
e 9 14
e 9 17
e 9 20
e 10 11
e 10 12
e 10 16
e 10 18
e 11 15
e 11 18
e 12 16
e 12 17
e 12 18
e 12 20
e 14 19
e 14 20
e 15 20
e 16 20
e 18 20
